p edge 40 62 20
v 1 5
v 1 29
v 1 12
v 2 16 17
v 3 14 25 39
v 3 6 11 36
v 1 18
v 4 4 13 23 37
v 1 27
v 3 31 32 38
v 2 15 34
v 2 21 40
v 5 8 10 20 22 30
v 1 3
v 1 1
v 3 2 24 35
v 1 26
v 2 19 28
v 2 7 33
v 1 9
e 1 3
e 1 10
e 2 3
e 2 17
e 2 32
e 2 33
e 3 9
e 3 30
e 3 37
e 4 33
e 5 11
e 5 32
e 6 14
e 6 29
e 6 31
e 6 32
e 6 34
e 6 38
e 7 33
e 8 33
e 8 37
e 10 13
e 10 15
e 10 17
e 11 20
e 11 23
e 11 30
e 12 21
e 12 23
e 12 25
e 12 28
e 13 35
e 13 39
e 13 40
e 14 26
e 14 33
e 14 38
e 14 39
e 15 16
e 15 20
e 15 24
e 15 30
e 16 20
e 16 28
e 16 34
e 16 35
e 17 36
e 18 27
e 18 37
e 18 38
e 18 40
e 19 25
e 23 24
e 25 30
e 25 40
e 27 29
e 29 39
e 30 31
e 31 34
e 32 33
e 32 34
e 32 37
